(declare-const x String)
(declare-const y String)
(assert (str.in.re x (re.+ (re.union (re.+ (str.to.re "aa6{")) (str.to.re ":' 'vCbb")))))
(assert (str.in.re y (re.* (re.++ (re.+ (str.to.re "aa")) (str.to.re "bG6M")))))
(assert (not (= x y)))
(assert (= (str.to.int x) (str.len y)))
(check-sat)
(get-model)
